webassembly/ejemplos_results/16/folder16_json_3.txt
value = 16;
fgas = [1, 1, 2, 1, 1, 1, 1, 2, 1, 1, 2, 1, 1, 1, 1, 1];
fsize = [1, 1, 1, 1, 1, 1, 1, 1, 1, 1, 1, 1, 1, 1, 1, 1];
states = 
[|   in_0,   in_1, in_2, in_3, in_4, in_5, in_6, in_7, in_8,  '.',  '.', '.', '.', '.'
 | 's(6)',   in_3, in_1, in_2, in_3, in_4, in_5, in_6, in_7, in_8,  '.', '.', '.', '.'
 | 's(6)',   in_2, in_3, in_1, in_2, in_3, in_4, in_5, in_6, in_7, in_8, '.', '.', '.'
 |   in_2,   in_3, in_1, in_2, in_3, in_4, in_5, in_6, in_7, in_8,  '.', '.', '.', '.'
 | 's(4)',   in_2, in_3, in_4, in_5, in_6, in_7, in_8,  '.',  '.',  '.', '.', '.', '.'
 |   in_2,   in_3, in_4, in_5, in_6, in_7, in_8,  '.',  '.',  '.',  '.', '.', '.', '.'
 |   in_3,   in_4, in_5, in_6, in_7, in_8,  '.',  '.',  '.',  '.',  '.', '.', '.', '.'
 | 's(6)',   in_6, in_4, in_5, in_6, in_7, in_8,  '.',  '.',  '.',  '.', '.', '.', '.'
 |   in_6,   in_4, in_5, in_6, in_7, in_8,  '.',  '.',  '.',  '.',  '.', '.', '.', '.'
 | 's(0)',   in_7, in_5, in_6, in_7, in_8,  '.',  '.',  '.',  '.',  '.', '.', '.', '.'
 | 's(1)', 's(1)', in_6, in_7, in_8,  '.',  '.',  '.',  '.',  '.',  '.', '.', '.', '.'
 | 's(1)',   in_6, in_7, in_8,  '.',  '.',  '.',  '.',  '.',  '.',  '.', '.', '.', '.'
 | 's(2)',   in_0, in_7, in_8,  '.',  '.',  '.',  '.',  '.',  '.',  '.', '.', '.', '.'
 | 's(3)',   in_8, in_7, in_8,  '.',  '.',  '.',  '.',  '.',  '.',  '.', '.', '.', '.'
 | 's(4)', 's(6)', in_8,  '.',  '.',  '.',  '.',  '.',  '.',  '.',  '.', '.', '.', '.'
 | 's(6)',   in_8,  '.',  '.',  '.',  '.',  '.',  '.',  '.',  '.',  '.', '.', '.', '.'
 | 's(5)', 's(4)',  '.',  '.',  '.',  '.',  '.',  '.',  '.',  '.',  '.', '.', '.', '.'
 |];
register_states = 
[| local_0, local_1, '.', '.', '.', '.', '.'
 | local_0, local_1, '.', '.', '.', '.', '.'
 | local_0, local_1, '.', '.', '.', '.', '.'
 | local_0, local_1, '.', '.', '.', '.', '.'
 | local_0, local_1, '.', '.', '.', '.', '.'
 | local_0,  's(4)', '.', '.', '.', '.', '.'
 |    in_2,  's(4)', '.', '.', '.', '.', '.'
 |    in_2,  's(4)', '.', '.', '.', '.', '.'
 |    in_2,  's(4)', '.', '.', '.', '.', '.'
 |    in_2,  's(4)', '.', '.', '.', '.', '.'
 |    in_2,  's(4)', '.', '.', '.', '.', '.'
 |    in_2,  's(4)', '.', '.', '.', '.', '.'
 |    in_2,  's(4)', '.', '.', '.', '.', '.'
 |    in_2,  's(4)', '.', '.', '.', '.', '.'
 |    in_2,  's(4)', '.', '.', '.', '.', '.'
 |  's(4)',  's(4)', '.', '.', '.', '.', '.'
 |  's(4)',  's(4)', '.', '.', '.', '.', '.'
 |];
program = [O('i32.const_0'), O('i32.const_0'), POP, O('i32.store16_2'), S(SET2), S(SET1), O('i32.const_0'), POP, O('i32.load16_u_5'), O('i32.sub_0'), POP, O('i32.load_7'), O('i32.load_8'), O('i32.add_0'), S(SET1), O('i32.load16_s_15')];
% time elapsed: 0.47 s
----------
value = 15;
fgas = [2, 1, 1, 1, 1, 1, 2, 1, 1, 1, 2, 1, 1, 1, 1, 0];
fsize = [1, 1, 1, 1, 1, 1, 1, 1, 1, 1, 1, 1, 1, 1, 1, 1];
states = 
[|   in_0,   in_1, in_2, in_3, in_4, in_5, in_6, in_7, in_8, '.', '.', '.', '.',    '.'
 |   in_1,   in_2, in_3, in_4, in_5, in_6, in_7, in_8,  '.', '.', '.', '.', '.',    '.'
 | 's(6)', 's(4)', in_2, in_3, in_4, in_5, in_6, in_7, in_8, '.', '.', '.', '.',    '.'
 | 's(4)',   in_2, in_3, in_4, in_5, in_6, in_7, in_8,  '.', '.', '.', '.', '.',    '.'
 |   in_2,   in_3, in_4, in_5, in_6, in_7, in_8,  '.',  '.', '.', '.', '.', '.',    '.'
 | 's(4)',   in_5, in_6, in_7, in_8,  '.',  '.',  '.',  '.', '.', '.', '.', '.',    '.'
 |   in_5,   in_6, in_7, in_8,  '.',  '.',  '.',  '.',  '.', '.', '.', '.', '.',    '.'
 |   in_6,   in_7, in_8,  '.',  '.',  '.',  '.',  '.',  '.', '.', '.', '.', '.',    '.'
 | 's(0)',   in_7, in_8,  '.',  '.',  '.',  '.',  '.',  '.', '.', '.', '.', '.',    '.'
 | 's(1)',   in_0,  '.',  '.',  '.',  '.',  '.',  '.',  '.', '.', '.', '.', '.',    '.'
 | 's(2)', 's(2)',  '.',  '.',  '.',  '.',  '.',  '.',  '.', '.', '.', '.', '.',    '.'
 | 's(2)',    '.',  '.',  '.',  '.',  '.',  '.',  '.',  '.', '.', '.', '.', '.',    '.'
 | 's(3)',   in_8,  '.',  '.',  '.',  '.',  '.',  '.',  '.', '.', '.', '.', '.',    '.'
 | 's(4)',    '.',  '.',  '.',  '.',  '.',  '.',  '.',  '.', '.', '.', '.', '.', 's(2)'
 | 's(6)',   in_0,  '.',  '.',  '.',  '.',  '.',  '.',  '.', '.', '.', '.', '.',    '.'
 | 's(5)', 's(4)',  '.',  '.',  '.',  '.',  '.',  '.',  '.', '.', '.', '.', '.',    '.'
 | 's(5)', 's(4)',  '.',  '.',  '.',  '.',  '.',  '.',  '.', '.', '.', '.', '.',    '.'
 |];
register_states = 
[| local_0, local_1, '.', '.', '.', '.', '.'
 | local_0, local_1, '.', '.', '.', '.', '.'
 | local_0, local_1, '.', '.', '.', '.', '.'
 |  's(6)', local_1, '.', '.', '.', '.', '.'
 |  's(6)',  's(4)', '.', '.', '.', '.', '.'
 |  's(6)',  's(4)', '.', '.', '.', '.', '.'
 |  's(4)',  's(4)', '.', '.', '.', '.', '.'
 |  's(4)',  's(4)', '.', '.', '.', '.', '.'
 |  's(4)',  's(4)', '.', '.', '.', '.', '.'
 |  's(4)',  's(4)', '.', '.', '.', '.', '.'
 |  's(4)',  's(4)', '.', '.', '.', '.', '.'
 |  's(4)',  's(4)', '.', '.', '.', '.', '.'
 |  's(4)',  's(4)', '.', '.', '.', '.', '.'
 |  's(4)',  's(4)', '.', '.', '.', '.', '.'
 |  's(4)',  's(4)', '.', '.', '.', '.', '.'
 |  's(4)',  's(4)', '.', '.', '.', '.', '.'
 |  's(4)',  's(4)', '.', '.', '.', '.', '.'
 |];
program = [POP, O('i32.const_0'), S(SET1), S(SET2), O('i32.store16_2'), S(SET1), POP, O('i32.load16_u_5'), O('i32.sub_0'), O('i32.load_7'), POP, O('i32.load_8'), O('i32.add_0'), O('i32.const_0'), O('i32.load16_s_15'), NOP];
% time elapsed: 0.50 s
----------
value = 14;
fgas = [2, 2, 1, 1, 1, 1, 1, 1, 1, 1, 1, 1, 1, 1, 0, 0];
fsize = [1, 1, 1, 1, 1, 1, 1, 1, 1, 1, 1, 1, 1, 1, 1, 1];
states = 
[|   in_0,   in_1,   in_2, in_3, in_4, in_5, in_6, in_7, in_8, '.', '.', '.', '.',    '.'
 |   in_1,   in_2,   in_3, in_4, in_5, in_6, in_7, in_8,  '.', '.', '.', '.', '.',    '.'
 |   in_2,   in_3,   in_4, in_5, in_6, in_7, in_8,  '.',  '.', '.', '.', '.', '.',    '.'
 | 's(1)',   in_5,   in_6, in_7, in_8,  '.',  '.',  '.',  '.', '.', '.', '.', '.', 's(3)'
 | 's(2)', 's(2)',   in_6, in_7, in_8,  '.',  '.',  '.',  '.', '.', '.', '.', '.', 's(3)'
 | 's(6)', 's(4)', 's(2)', in_6, in_7, in_8,  '.',  '.',  '.', '.', '.', '.', '.',    '.'
 | 's(4)', 's(2)',   in_6, in_7, in_8,  '.',  '.',  '.',  '.', '.', '.', '.', '.',    '.'
 | 's(2)',   in_6,   in_7, in_8,  '.',  '.',  '.',  '.',  '.', '.', '.', '.', '.',    '.'
 | 's(3)',   in_8,   in_7, in_8,  '.',  '.',  '.',  '.',  '.', '.', '.', '.', '.',    '.'
 | 's(4)',   in_6,   in_8,  '.',  '.',  '.',  '.',  '.',  '.', '.', '.', '.', '.',    '.'
 |   in_6,   in_8,    '.',  '.',  '.',  '.',  '.',  '.',  '.', '.', '.', '.', '.',    '.'
 | 's(0)',   in_7,    '.',  '.',  '.',  '.',  '.',  '.',  '.', '.', '.', '.', '.',    '.'
 | 's(1)',    '.',    '.',  '.',  '.',  '.',  '.',  '.',  '.', '.', '.', '.', '.',   in_5
 | 's(6)',   in_0,    '.',  '.',  '.',  '.',  '.',  '.',  '.', '.', '.', '.', '.',    '.'
 | 's(5)', 's(4)',    '.',  '.',  '.',  '.',  '.',  '.',  '.', '.', '.', '.', '.',    '.'
 | 's(5)', 's(4)',    '.',  '.',  '.',  '.',  '.',  '.',  '.', '.', '.', '.', '.',    '.'
 | 's(5)', 's(4)',    '.',  '.',  '.',  '.',  '.',  '.',  '.', '.', '.', '.', '.',    '.'
 |];
register_states = 
[| local_0, local_1, '.', '.', '.', '.', '.'
 | local_0, local_1, '.', '.', '.', '.', '.'
 | local_0, local_1, '.', '.', '.', '.', '.'
 | local_0, local_1, '.', '.', '.', '.', '.'
 | local_0, local_1, '.', '.', '.', '.', '.'
 | local_0, local_1, '.', '.', '.', '.', '.'
 |  's(6)', local_1, '.', '.', '.', '.', '.'
 |  's(4)', local_1, '.', '.', '.', '.', '.'
 |  's(4)', local_1, '.', '.', '.', '.', '.'
 |  's(4)', local_1, '.', '.', '.', '.', '.'
 |  's(4)',  's(4)', '.', '.', '.', '.', '.'
 |  's(4)',  's(4)', '.', '.', '.', '.', '.'
 |  's(4)',  's(4)', '.', '.', '.', '.', '.'
 |  's(4)',  's(4)', '.', '.', '.', '.', '.'
 |  's(4)',  's(4)', '.', '.', '.', '.', '.'
 |  's(4)',  's(4)', '.', '.', '.', '.', '.'
 |  's(4)',  's(4)', '.', '.', '.', '.', '.'
 |];
program = [POP, POP, O('i32.store16_2'), O('i32.load_7'), O('i32.const_0'), S(SET1), S(SET1), O('i32.load_8'), O('i32.add_0'), S(SET2), O('i32.load16_u_5'), O('i32.sub_0'), O('i32.const_0'), O('i32.load16_s_15'), NOP, NOP];
% time elapsed: 0.51 s
----------
value = 13;
fgas = [2, 1, 1, 1, 1, 1, 1, 1, 1, 1, 1, 1, 1, 0, 0, 0];
fsize = [1, 1, 1, 1, 1, 1, 1, 1, 1, 1, 1, 1, 1, 1, 1, 1];
states = 
[|   in_0,   in_1, in_2, in_3, in_4, in_5, in_6, in_7, in_8, '.', '.', '.', '.', '.'
 |   in_1,   in_2, in_3, in_4, in_5, in_6, in_7, in_8,  '.', '.', '.', '.', '.', '.'
 |   in_2,   in_3, in_4, in_5, in_6, in_7, in_8,  '.',  '.', '.', '.', '.', '.', '.'
 | 's(4)',   in_5, in_6, in_7, in_8,  '.',  '.',  '.',  '.', '.', '.', '.', '.', '.'
 |   in_5,   in_6, in_7, in_8,  '.',  '.',  '.',  '.',  '.', '.', '.', '.', '.', '.'
 | 's(6)',   in_6, in_6, in_7, in_8,  '.',  '.',  '.',  '.', '.', '.', '.', '.', '.'
 |   in_6,   in_6, in_7, in_8,  '.',  '.',  '.',  '.',  '.', '.', '.', '.', '.', '.'
 | 's(0)',   in_7, in_7, in_8,  '.',  '.',  '.',  '.',  '.', '.', '.', '.', '.', '.'
 | 's(1)', 's(3)', in_8,  '.',  '.',  '.',  '.',  '.',  '.', '.', '.', '.', '.', '.'
 | 's(2)',   in_0, in_8,  '.',  '.',  '.',  '.',  '.',  '.', '.', '.', '.', '.', '.'
 | 's(3)',   in_8, in_8,  '.',  '.',  '.',  '.',  '.',  '.', '.', '.', '.', '.', '.'
 | 's(4)', 's(6)',  '.',  '.',  '.',  '.',  '.',  '.',  '.', '.', '.', '.', '.', '.'
 | 's(6)',    '.',  '.',  '.',  '.',  '.',  '.',  '.',  '.', '.', '.', '.', '.', '.'
 | 's(5)', 's(4)',  '.',  '.',  '.',  '.',  '.',  '.',  '.', '.', '.', '.', '.', '.'
 | 's(5)', 's(4)',  '.',  '.',  '.',  '.',  '.',  '.',  '.', '.', '.', '.', '.', '.'
 | 's(5)', 's(4)',  '.',  '.',  '.',  '.',  '.',  '.',  '.', '.', '.', '.', '.', '.'
 | 's(5)', 's(4)',  '.',  '.',  '.',  '.',  '.',  '.',  '.', '.', '.', '.', '.', '.'
 |];
register_states = 
[| local_0, local_1, '.', '.', '.', '.', '.'
 | local_0, local_1, '.', '.', '.', '.', '.'
 | local_0,    in_1, '.', '.', '.', '.', '.'
 | local_0,    in_1, '.', '.', '.', '.', '.'
 | local_0,  's(4)', '.', '.', '.', '.', '.'
 | local_0,  's(4)', '.', '.', '.', '.', '.'
 |  's(6)',  's(4)', '.', '.', '.', '.', '.'
 |  's(6)',  's(4)', '.', '.', '.', '.', '.'
 |  's(6)',  's(4)', '.', '.', '.', '.', '.'
 |  's(6)',  's(4)', '.', '.', '.', '.', '.'
 |  's(6)',  's(4)', '.', '.', '.', '.', '.'
 |  's(6)',  's(4)', '.', '.', '.', '.', '.'
 |  's(4)',  's(4)', '.', '.', '.', '.', '.'
 |  's(4)',  's(4)', '.', '.', '.', '.', '.'
 |  's(4)',  's(4)', '.', '.', '.', '.', '.'
 |  's(4)',  's(4)', '.', '.', '.', '.', '.'
 |  's(4)',  's(4)', '.', '.', '.', '.', '.'
 |];
program = [POP, S(SET2), O('i32.store16_2'), S(SET2), O('i32.const_0'), S(SET1), O('i32.load16_u_5'), O('i32.sub_0'), O('i32.load_7'), O('i32.load_8'), O('i32.add_0'), S(SET1), O('i32.load16_s_15'), NOP, NOP, NOP];
% time elapsed: 0.60 s
----------
value = 12;
fgas = [1, 2, 1, 2, 1, 1, 1, 1, 1, 1, 1, 1, 0, 0, 0, 0];
fsize = [1, 1, 1, 1, 1, 1, 1, 1, 1, 1, 1, 1, 1, 1, 1, 1];
states = 
[|   in_0,   in_1, in_2, in_3, in_4, in_5, in_6, in_7, in_8,  '.', '.', '.', '.', '.'
 | 's(6)', 's(4)', in_1, in_2, in_3, in_4, in_5, in_6, in_7, in_8, '.', '.', '.', '.'
 | 's(4)',   in_1, in_2, in_3, in_4, in_5, in_6, in_7, in_8,  '.', '.', '.', '.', '.'
 |   in_1,   in_2, in_3, in_4, in_5, in_6, in_7, in_8,  '.',  '.', '.', '.', '.', '.'
 |   in_2,   in_3, in_4, in_5, in_6, in_7, in_8,  '.',  '.',  '.', '.', '.', '.', '.'
 |   in_6,   in_5, in_6, in_7, in_8,  '.',  '.',  '.',  '.',  '.', '.', '.', '.', '.'
 | 's(0)',   in_7, in_6, in_7, in_8,  '.',  '.',  '.',  '.',  '.', '.', '.', '.', '.'
 | 's(1)', 's(3)', in_7, in_8,  '.',  '.',  '.',  '.',  '.',  '.', '.', '.', '.', '.'
 | 's(2)',   in_0, in_7, in_8,  '.',  '.',  '.',  '.',  '.',  '.', '.', '.', '.', '.'
 | 's(3)',   in_8, in_7, in_8,  '.',  '.',  '.',  '.',  '.',  '.', '.', '.', '.', '.'
 | 's(4)', 's(6)', in_8,  '.',  '.',  '.',  '.',  '.',  '.',  '.', '.', '.', '.', '.'
 | 's(6)',   in_8,  '.',  '.',  '.',  '.',  '.',  '.',  '.',  '.', '.', '.', '.', '.'
 | 's(5)', 's(4)',  '.',  '.',  '.',  '.',  '.',  '.',  '.',  '.', '.', '.', '.', '.'
 | 's(5)', 's(4)',  '.',  '.',  '.',  '.',  '.',  '.',  '.',  '.', '.', '.', '.', '.'
 | 's(5)', 's(4)',  '.',  '.',  '.',  '.',  '.',  '.',  '.',  '.', '.', '.', '.', '.'
 | 's(5)', 's(4)',  '.',  '.',  '.',  '.',  '.',  '.',  '.',  '.', '.', '.', '.', '.'
 | 's(5)', 's(4)',  '.',  '.',  '.',  '.',  '.',  '.',  '.',  '.', '.', '.', '.', '.'
 |];
register_states = 
[| local_0, local_1, '.', '.', '.', '.', '.'
 | local_0, local_1, '.', '.', '.', '.', '.'
 | local_0, local_1, '.', '.', '.', '.', '.'
 |  's(4)', local_1, '.', '.', '.', '.', '.'
 |  's(4)', local_1, '.', '.', '.', '.', '.'
 |  's(4)', local_1, '.', '.', '.', '.', '.'
 |  's(4)', local_1, '.', '.', '.', '.', '.'
 |  's(4)', local_1, '.', '.', '.', '.', '.'
 |  's(4)', local_1, '.', '.', '.', '.', '.'
 |  's(4)', local_1, '.', '.', '.', '.', '.'
 |  's(4)', local_1, '.', '.', '.', '.', '.'
 |  's(4)',  's(4)', '.', '.', '.', '.', '.'
 |  's(4)',  's(4)', '.', '.', '.', '.', '.'
 |  's(4)',  's(4)', '.', '.', '.', '.', '.'
 |  's(4)',  's(4)', '.', '.', '.', '.', '.'
 |  's(4)',  's(4)', '.', '.', '.', '.', '.'
 |  's(4)',  's(4)', '.', '.', '.', '.', '.'
 |];
program = [O('i32.const_0'), POP, S(SET1), POP, O('i32.store16_2'), O('i32.load16_u_5'), O('i32.sub_0'), O('i32.load_7'), O('i32.load_8'), O('i32.add_0'), S(SET2), O('i32.load16_s_15'), NOP, NOP, NOP, NOP];
% time elapsed: 0.66 s
----------
==========
% time elapsed: 0.69 s
% [value > 11]
